#######################################
### Exact MIP solver for the HHCRSP ###
#######################################
-- Instance file: new-instances/HHCRSP_50_10_13_1.6_C_RC.txt
-- Max threads: 4
-- Time limit: 999999 seconds
-- Use initial solution: No
Trivial flow violations prevented generating 6298 variables.
Model exported.
Version identifier: 20.1.0.0 | 2020-11-10 | 9bedb6d68
CPXPARAM_Threads                                 4
CPXPARAM_TimeLimit                               999999
Parallel mode: deterministic, using up to 4 threads for concurrent optimization:
 * Starting dual Simplex on 1 thread...
 * Starting Barrier on 3 threads...
Tried aggregator 1 time.
LP Presolve eliminated 1446 rows and 369 columns.
Reduced LP has 7318 rows, 7012 columns, and 65655 nonzeros.
Presolve time = 0.03 sec. (18.61 ticks)
Symmetry aggregator did 3929 additional substitutions.

Iteration log . . .
Iteration:     1   Dual objective     =             0.000000
Iteration:   240   Dual objective     =           115.000000

Dual crossover.
  Dual:  Fixing 107 variables.
      106 DMoves:  Infeasibility  4.57412132e-14  Objective  1.16669500e+02
        0 DMoves:  Infeasibility  1.48214943e-14  Objective  1.16669500e+02
  Dual:  Pushed 3, exchanged 104.
  Primal:  Fixing 28 variables.
       27 PMoves:  Infeasibility  1.11022302e-16  Objective  1.16669500e+02
        0 PMoves:  Infeasibility  1.11022302e-16  Objective  1.16669500e+02
  Primal:  Pushed 6, exchanged 22.

Dual simplex solved model.


Solution status from MIP model:
-- Processing time: 0.066 sec.
-- Memory used: 73.3203 MB
-- Best bound: inf
-- Obj value: 116.669
-- Gap: inf%
-- Total distance: 350.009
-- Total tardiness: 0
-- Largest tardiness: 0
